# Objective value 43200
x_1_1     500
x_2_1     0
x_2_2     0
x_3_1     0
x_3_2     550
x_3_3     700
x_4_1     0
x_4_2     0
x_4_3     0
x_4_4     900
x_5_1     0
x_5_2     0
x_5_3     0
x_5_4     0
x_5_5     0
x_6_1     0
x_6_2     0
x_6_3     0
x_6_4     0
x_6_5     400
x_6_6     300
y(1)      1
y(2)      0
y(3)      1
y(4)      1.0000000000000002
y(5)      0
y(6)      1
